&BANDS
prefix = 'qe'
outdir = './tmp'
filband = 'bands.dat'
/