&CONTROL
calculation = 'bands'
prefix = 'qe'
outdir = './tmp'
pseudo_dir = './pseudo'
/
&SYSTEM
  ibrav = 1
  celldm(1) = 8.598257
  nat = 12
  ntyp = 3
  ecutwfc = 100.0
  degauss = 0.005
  nspin = 1
  occupations = 'smearing'
  noncolin = .true.
  lspinorb = .true.
  lda_plus_u = .true.
  lda_plus_u_kind = 0
  hubbard_u(1) = 3.00  ! V
/

&ELECTRONS
conv_thr = 1.0d-8
/
ATOMIC_SPECIES
V 50.9415 V.pbe-spnl-rrkjus_psl.1.0.0.UPF
O 15.9990 O.pbe-n-rrkjus_psl.1.0.0.UPF
W 183.8400 W.pbesol.UPF
ATOMIC_POSITIONS crystal
V 0.000000 0.000000 0.000000
V 0.500000 0.500000 0.500000
V 0.000000 0.500000 0.000000
W 0.500000 0.000000 0.500000
O 0.250000 0.250000 0.000000
O 0.250000 0.750000 0.000000
O 0.750000 0.250000 0.500000
O 0.750000 0.750000 0.500000
O 0.000000 0.250000 0.250000
O 0.500000 0.750000 0.250000
O 0.500000 0.250000 0.750000
O 0.000000 0.750000 0.750000
K_POINTS (crystal)
4
  0.000000 0.000000 0.000000  1  ! Gamma
  0.500000 0.000000 0.000000  1  ! X
  0.500000 0.500000 0.000000  1  ! M
  0.000000 0.000000 0.000000  1  ! Gamma


