&DOS
prefix = 'qe'
outdir = './tmp'
fildos = 'dos.dat'
/